(set-logic QF_NRA)
(set-info :source |Benchmarks generated from hycomp (https://es-static.fbk.eu/tools/hycomp/). BMC instances of non-linear hybrid automata taken from: Alessandro Cimatti, Sergio Mover, Stefano Tonetta, A quantifier-free SMT encoding of non-linear hybrid automata, FMCAD 2012 and Alessandro Cimatti, Sergio Mover, Stefano Tonetta, Quantier-free encoding of invariants for Hybrid Systems, Formal Methods in System Design. This instance solves a BMC problem of depth 2 and uses the quantifier free encoding encoding. Contacts: Sergio Mover (mover@fbk.eu), Stefano Tonetta (tonettas@fbk.eu), Alessandro Cimatti (cimatti@fbk.eu).|)
(set-info :smt-lib-version 2.0)
(set-info :category "industrial")
(set-info :status unsat)
;; MathSAT API call trace
;; generated on Mon Mar 19 10:44:19 2012
(declare-fun b.counter.0__AT2 () Bool)
(declare-fun b.time__AT1 () Real)
(declare-fun b.x__AT2 () Real)
(declare-fun b.x__AT1 () Real)
(declare-fun b.EVENT.0__AT2 () Bool)
(declare-fun b.counter.1__AT2 () Bool)
(declare-fun b.event_is_timed__AT1 () Bool)
(declare-fun b.counter.0__AT1 () Bool)
(declare-fun b.EVENT.1__AT2 () Bool)
(declare-fun b.EVENT.1__AT0 () Bool)
(declare-fun b.counter.2__AT2 () Bool)
(declare-fun b.speed_loss__AT0 () Real)
(declare-fun b.counter.1__AT1 () Bool)
(declare-fun b.speed_x__AT0 () Real)
(declare-fun b.counter.3__AT2 () Bool)
(declare-fun b.counter.2__AT1 () Bool)
(declare-fun b.time__AT0 () Real)
(declare-fun b.bool_atom__AT2 () Bool)
(declare-fun b.counter.2__AT0 () Bool)
(declare-fun b.counter.3__AT1 () Bool)
(declare-fun b.speed_x__AT2 () Real)
(declare-fun b.bool_atom__AT1 () Bool)
(declare-fun b.speed_y__AT2 () Real)
(declare-fun b.x__AT0 () Real)
(declare-fun b.speed_y__AT1 () Real)
(declare-fun b.delta__AT1 () Real)
(declare-fun b.bool_atom__AT0 () Bool)
(declare-fun b.y__AT0 () Real)
(declare-fun b.EVENT.1__AT1 () Bool)
(declare-fun b.EVENT.0__AT1 () Bool)
(declare-fun b.counter.0__AT0 () Bool)
(declare-fun b.delta__AT0 () Real)
(declare-fun b.counter.1__AT0 () Bool)
(declare-fun b.y__AT1 () Real)
(declare-fun b.EVENT.0__AT0 () Bool)
(declare-fun b.speed_y__AT0 () Real)
(declare-fun b.event_is_timed__AT2 () Bool)
(declare-fun b.event_is_timed__AT0 () Bool)
(declare-fun b.counter.3__AT0 () Bool)
(declare-fun b.time__AT2 () Real)
(declare-fun b.speed_x__AT1 () Real)
(declare-fun b.y__AT2 () Real)
(declare-fun b.delta__AT2 () Real)
(assert (let ((.def_636 (* (- 1.0) b.speed_x__AT2)))
(let ((.def_637 (* b.speed_x__AT2 .def_636)))
(let ((.def_638 (* (- 1.0) .def_637)))
(let ((.def_669 (* 2.0 .def_638)))
(let ((.def_687 (* (- 1.0) .def_669)))
(let ((.def_688 (* b.delta__AT2 .def_687)))
(let ((.def_689 (* (- 5.0) .def_688)))
(let ((.def_568 (* (- 1.0) b.x__AT2)))
(let ((.def_649 (* b.speed_x__AT2 .def_568)))
(let ((.def_674 (* (- 5.0) .def_649)))
(let ((.def_694 (+ .def_674 .def_689)))
(let ((.def_644 (* b.x__AT2 .def_636)))
(let ((.def_672 (* (- 5.0) .def_644)))
(let ((.def_695 (+ .def_672 .def_694)))
(let ((.def_676 (* (- 49.0) b.delta__AT2)))
(let ((.def_696 (+ .def_676 .def_695)))
(let ((.def_678 (* 5.0 b.speed_y__AT2)))
(let ((.def_697 (+ .def_678 .def_696)))
(let ((.def_698 (<= .def_697 0.0 )))
(let ((.def_650 (* (- 1.0) .def_649)))
(let ((.def_645 (* (- 1.0) .def_644)))
(let ((.def_666 (+ .def_645 .def_650)))
(let ((.def_667 (+ b.speed_y__AT2 .def_666)))
(let ((.def_686 (<= .def_667 0.0 )))
(let ((.def_699 (and .def_686 .def_698)))
(let ((.def_670 (* b.delta__AT2 .def_669)))
(let ((.def_671 (* 5.0 .def_670)))
(let ((.def_680 (+ .def_674 .def_671)))
(let ((.def_681 (+ .def_672 .def_680)))
(let ((.def_682 (+ .def_676 .def_681)))
(let ((.def_683 (+ .def_678 .def_682)))
(let ((.def_684 (<= 0.0 .def_683)))
(let ((.def_668 (<= 0.0 .def_667)))
(let ((.def_685 (and .def_668 .def_684)))
(let ((.def_700 (or .def_685 .def_699)))
(let ((.def_651 (* b.delta__AT2 .def_650)))
(let ((.def_652 (* 10.0 .def_651)))
(let ((.def_646 (* b.delta__AT2 .def_645)))
(let ((.def_647 (* 10.0 .def_646)))
(let ((.def_658 (+ .def_647 .def_652)))
(let ((.def_635 (* b.delta__AT2 b.delta__AT2)))
(let ((.def_639 (* .def_635 .def_638)))
(let ((.def_640 (* 10.0 .def_639)))
(let ((.def_659 (+ .def_640 .def_658)))
(let ((.def_642 (* (- 49.0) .def_635)))
(let ((.def_660 (+ .def_642 .def_659)))
(let ((.def_633 (* b.speed_y__AT2 b.delta__AT2)))
(let ((.def_634 (* 10.0 .def_633)))
(let ((.def_661 (+ .def_634 .def_660)))
(let ((.def_614 (* b.x__AT2 .def_568)))
(let ((.def_654 (* (- 10.0) .def_614)))
(let ((.def_662 (+ .def_654 .def_661)))
(let ((.def_656 (* 10.0 b.y__AT2)))
(let ((.def_663 (+ .def_656 .def_662)))
(let ((.def_664 (<= 0.0 .def_663)))
(let ((.def_615 (<= .def_614 b.y__AT2)))
(let ((.def_665 (and .def_615 .def_664)))
(let ((.def_701 (and .def_665 .def_700)))
(let ((.def_76 (<= b.speed_loss__AT0 (/ 1 2))))
(let ((.def_73 (<= (/ 1 10) b.speed_loss__AT0)))
(let ((.def_77 (and .def_73 .def_76)))
(let ((.def_702 (and .def_77 .def_701)))
(let ((.def_261 (not b.counter.0__AT1)))
(let ((.def_625 (or b.counter.1__AT1 .def_261)))
(let ((.def_626 (or b.counter.2__AT1 .def_625)))
(let ((.def_251 (not b.counter.1__AT1)))
(let ((.def_620 (and .def_251 .def_261)))
(let ((.def_256 (not b.counter.2__AT1)))
(let ((.def_624 (or .def_256 .def_620)))
(let ((.def_627 (and .def_624 .def_626)))
(let ((.def_628 (or b.counter.3__AT1 .def_627)))
(let ((.def_621 (or b.counter.2__AT1 .def_620)))
(let ((.def_619 (or .def_251 .def_256)))
(let ((.def_622 (and .def_619 .def_621)))
(let ((.def_270 (not b.counter.3__AT1)))
(let ((.def_623 (or .def_270 .def_622)))
(let ((.def_629 (and .def_623 .def_628)))
(let ((.def_616 (and .def_77 .def_615)))
(let ((.def_611 (not b.EVENT.0__AT2)))
(let ((.def_609 (not b.EVENT.1__AT2)))
(let ((.def_612 (or .def_609 .def_611)))
(let ((.def_9 (not b.counter.0__AT2)))
(let ((.def_6 (not b.counter.1__AT2)))
(let ((.def_602 (or .def_6 .def_9)))
(let ((.def_606 (or b.counter.3__AT2 .def_602)))
(let ((.def_603 (or b.counter.2__AT2 .def_602)))
(let ((.def_4 (not b.counter.2__AT2)))
(let ((.def_601 (or .def_4 .def_9)))
(let ((.def_604 (and .def_601 .def_603)))
(let ((.def_14 (not b.counter.3__AT2)))
(let ((.def_605 (or .def_14 .def_604)))
(let ((.def_607 (and .def_605 .def_606)))
(let ((.def_613 (and .def_607 .def_612)))
(let ((.def_617 (and .def_613 .def_616)))
(let ((.def_596 (<= 0.0 b.delta__AT1)))
(let ((.def_348 (not b.EVENT.0__AT1)))
(let ((.def_346 (not b.EVENT.1__AT1)))
(let ((.def_440 (and .def_346 .def_348)))
(let ((.def_442 (not .def_440)))
(let ((.def_597 (or .def_442 .def_596)))
(let ((.def_598 (or b.EVENT.1__AT1 .def_597)))
(let ((.def_480 (= b.bool_atom__AT1 b.bool_atom__AT2)))
(let ((.def_476 (= b.counter.0__AT2 b.counter.0__AT1)))
(let ((.def_474 (= b.counter.1__AT2 b.counter.1__AT1)))
(let ((.def_472 (= b.counter.2__AT2 b.counter.2__AT1)))
(let ((.def_471 (= b.counter.3__AT2 b.counter.3__AT1)))
(let ((.def_473 (and .def_471 .def_472)))
(let ((.def_475 (and .def_473 .def_474)))
(let ((.def_477 (and .def_475 .def_476)))
(let ((.def_592 (and .def_477 .def_480)))
(let ((.def_593 (or .def_442 .def_592)))
(let ((.def_594 (or b.EVENT.1__AT1 .def_593)))
(let ((.def_580 (* (- 10.0) b.y__AT2)))
(let ((.def_371 (* b.delta__AT1 b.delta__AT1)))
(let ((.def_378 (* (- 49.0) .def_371)))
(let ((.def_584 (+ .def_378 .def_580)))
(let ((.def_369 (* b.speed_y__AT1 b.delta__AT1)))
(let ((.def_370 (* 10.0 .def_369)))
(let ((.def_585 (+ .def_370 .def_584)))
(let ((.def_392 (* 10.0 b.y__AT1)))
(let ((.def_586 (+ .def_392 .def_585)))
(let ((.def_587 (= .def_586 0.0 )))
(let ((.def_575 (* (- 5.0) b.speed_y__AT2)))
(let ((.def_412 (* (- 49.0) b.delta__AT1)))
(let ((.def_576 (+ .def_412 .def_575)))
(let ((.def_414 (* 5.0 b.speed_y__AT1)))
(let ((.def_577 (+ .def_414 .def_576)))
(let ((.def_578 (= .def_577 0.0 )))
(let ((.def_567 (* b.speed_x__AT1 b.delta__AT1)))
(let ((.def_571 (+ .def_568 .def_567)))
(let ((.def_572 (+ b.x__AT1 .def_571)))
(let ((.def_573 (= .def_572 0.0 )))
(let ((.def_466 (= b.speed_x__AT1 b.speed_x__AT2)))
(let ((.def_574 (and .def_466 .def_573)))
(let ((.def_579 (and .def_574 .def_578)))
(let ((.def_588 (and .def_579 .def_587)))
(let ((.def_589 (or .def_442 .def_588)))
(let ((.def_463 (= b.y__AT1 b.y__AT2)))
(let ((.def_460 (= b.x__AT1 b.x__AT2)))
(let ((.def_561 (and .def_460 .def_463)))
(let ((.def_562 (and .def_466 .def_561)))
(let ((.def_469 (= b.speed_y__AT1 b.speed_y__AT2)))
(let ((.def_563 (and .def_469 .def_562)))
(let ((.def_558 (= b.delta__AT1 0.0 )))
(let ((.def_559 (and .def_440 .def_558)))
(let ((.def_560 (not .def_559)))
(let ((.def_564 (or .def_560 .def_563)))
(let ((.def_565 (or b.EVENT.1__AT1 .def_564)))
(let ((.def_550 (and .def_466 .def_469)))
(let ((.def_551 (and .def_477 .def_550)))
(let ((.def_552 (or b.bool_atom__AT1 .def_551)))
(let ((.def_526 (or .def_9 b.counter.0__AT1)))
(let ((.def_525 (or b.counter.0__AT2 .def_261)))
(let ((.def_527 (and .def_525 .def_526)))
(let ((.def_528 (and .def_6 .def_527)))
(let ((.def_529 (or b.counter.1__AT1 .def_528)))
(let ((.def_524 (or b.counter.1__AT2 .def_251)))
(let ((.def_530 (and .def_524 .def_529)))
(let ((.def_541 (and .def_4 .def_530)))
(let ((.def_542 (or b.counter.2__AT1 .def_541)))
(let ((.def_536 (and .def_6 .def_261)))
(let ((.def_537 (or b.counter.1__AT1 .def_536)))
(let ((.def_538 (and .def_524 .def_537)))
(let ((.def_539 (and b.counter.2__AT2 .def_538)))
(let ((.def_540 (or .def_256 .def_539)))
(let ((.def_543 (and .def_540 .def_542)))
(let ((.def_544 (and b.counter.3__AT2 .def_543)))
(let ((.def_545 (or b.counter.3__AT1 .def_544)))
(let ((.def_531 (and b.counter.2__AT2 .def_530)))
(let ((.def_532 (or b.counter.2__AT1 .def_531)))
(let ((.def_520 (or b.counter.1__AT2 b.counter.1__AT1)))
(let ((.def_518 (and .def_6 b.counter.0__AT2)))
(let ((.def_519 (or .def_251 .def_518)))
(let ((.def_521 (and .def_519 .def_520)))
(let ((.def_522 (and .def_4 .def_521)))
(let ((.def_523 (or .def_256 .def_522)))
(let ((.def_533 (and .def_523 .def_532)))
(let ((.def_534 (and .def_14 .def_533)))
(let ((.def_535 (or .def_270 .def_534)))
(let ((.def_546 (and .def_535 .def_545)))
(let ((.def_237 (* b.speed_y__AT1 b.speed_y__AT1)))
(let ((.def_235 (* b.speed_x__AT1 b.speed_x__AT1)))
(let ((.def_510 (+ .def_235 .def_237)))
(let ((.def_223 (* (- 1.0) b.speed_loss__AT0)))
(let ((.def_224 (+ 1.0 .def_223)))
(let ((.def_240 (* .def_224 .def_224)))
(let ((.def_511 (* .def_240 .def_510)))
(let ((.def_513 (* (- 1.0) .def_511)))
(let ((.def_507 (* b.speed_y__AT2 b.speed_y__AT2)))
(let ((.def_514 (+ .def_507 .def_513)))
(let ((.def_505 (* b.speed_x__AT2 b.speed_x__AT2)))
(let ((.def_515 (+ .def_505 .def_514)))
(let ((.def_516 (= .def_515 0.0 )))
(let ((.def_498 (* b.speed_y__AT1 .def_224)))
(let ((.def_220 (* (- 2.0) b.x__AT1)))
(let ((.def_221 (* (- 1.0) .def_220)))
(let ((.def_495 (* .def_221 .def_224)))
(let ((.def_496 (* b.speed_x__AT1 .def_495)))
(let ((.def_501 (+ .def_496 .def_498)))
(let ((.def_492 (* (- 2.0) b.x__AT2)))
(let ((.def_493 (* (- 1.0) .def_492)))
(let ((.def_494 (* b.speed_x__AT2 .def_493)))
(let ((.def_502 (+ .def_494 .def_501)))
(let ((.def_503 (+ b.speed_y__AT2 .def_502)))
(let ((.def_504 (= .def_503 0.0 )))
(let ((.def_517 (and .def_504 .def_516)))
(let ((.def_547 (and .def_517 .def_546)))
(let ((.def_491 (not b.bool_atom__AT1)))
(let ((.def_548 (or .def_491 .def_547)))
(let ((.def_222 (* b.speed_x__AT1 .def_221)))
(let ((.def_486 (+ b.speed_y__AT1 .def_222)))
(let ((.def_487 (<= 0.0 .def_486)))
(let ((.def_488 (not .def_487)))
(let ((.def_305 (* (- 1.0) b.x__AT1)))
(let ((.def_351 (* b.x__AT1 .def_305)))
(let ((.def_485 (= b.y__AT1 .def_351)))
(let ((.def_489 (and .def_485 .def_488)))
(let ((.def_490 (= b.bool_atom__AT1 .def_489)))
(let ((.def_549 (and .def_490 .def_548)))
(let ((.def_553 (and .def_549 .def_552)))
(let ((.def_554 (and .def_460 .def_553)))
(let ((.def_555 (and .def_463 .def_554)))
(let ((.def_556 (or .def_440 .def_555)))
(let ((.def_557 (or b.EVENT.1__AT1 .def_556)))
(let ((.def_566 (and .def_557 .def_565)))
(let ((.def_590 (and .def_566 .def_589)))
(let ((.def_447 (= b.time__AT1 b.time__AT2)))
(let ((.def_461 (and .def_447 .def_460)))
(let ((.def_464 (and .def_461 .def_463)))
(let ((.def_467 (and .def_464 .def_466)))
(let ((.def_470 (and .def_467 .def_469)))
(let ((.def_478 (and .def_470 .def_477)))
(let ((.def_481 (and .def_478 .def_480)))
(let ((.def_482 (or .def_346 .def_481)))
(let ((.def_450 (* (- 1.0) b.time__AT2)))
(let ((.def_453 (+ b.delta__AT1 .def_450)))
(let ((.def_454 (+ b.time__AT1 .def_453)))
(let ((.def_455 (= .def_454 0.0 )))
(let ((.def_456 (or .def_442 .def_455)))
(let ((.def_457 (or b.EVENT.1__AT1 .def_456)))
(let ((.def_448 (or .def_440 .def_447)))
(let ((.def_449 (or b.EVENT.1__AT1 .def_448)))
(let ((.def_458 (and .def_449 .def_457)))
(let ((.def_483 (and .def_458 .def_482)))
(let ((.def_444 (= .def_442 b.event_is_timed__AT2)))
(let ((.def_441 (= b.event_is_timed__AT1 .def_440)))
(let ((.def_445 (and .def_441 .def_444)))
(let ((.def_484 (and .def_445 .def_483)))
(let ((.def_591 (and .def_484 .def_590)))
(let ((.def_595 (and .def_591 .def_594)))
(let ((.def_599 (and .def_595 .def_598)))
(let ((.def_600 (and .def_346 .def_599)))
(let ((.def_618 (and .def_600 .def_617)))
(let ((.def_630 (and .def_618 .def_629)))
(let ((.def_372 (* (- 1.0) b.speed_x__AT1)))
(let ((.def_373 (* b.speed_x__AT1 .def_372)))
(let ((.def_374 (* (- 1.0) .def_373)))
(let ((.def_405 (* 2.0 .def_374)))
(let ((.def_423 (* (- 1.0) .def_405)))
(let ((.def_424 (* b.delta__AT1 .def_423)))
(let ((.def_425 (* (- 5.0) .def_424)))
(let ((.def_385 (* b.speed_x__AT1 .def_305)))
(let ((.def_410 (* (- 5.0) .def_385)))
(let ((.def_430 (+ .def_410 .def_425)))
(let ((.def_380 (* b.x__AT1 .def_372)))
(let ((.def_408 (* (- 5.0) .def_380)))
(let ((.def_431 (+ .def_408 .def_430)))
(let ((.def_432 (+ .def_412 .def_431)))
(let ((.def_433 (+ .def_414 .def_432)))
(let ((.def_434 (<= .def_433 0.0 )))
(let ((.def_386 (* (- 1.0) .def_385)))
(let ((.def_381 (* (- 1.0) .def_380)))
(let ((.def_402 (+ .def_381 .def_386)))
(let ((.def_403 (+ b.speed_y__AT1 .def_402)))
(let ((.def_422 (<= .def_403 0.0 )))
(let ((.def_435 (and .def_422 .def_434)))
(let ((.def_406 (* b.delta__AT1 .def_405)))
(let ((.def_407 (* 5.0 .def_406)))
(let ((.def_416 (+ .def_410 .def_407)))
(let ((.def_417 (+ .def_408 .def_416)))
(let ((.def_418 (+ .def_412 .def_417)))
(let ((.def_419 (+ .def_414 .def_418)))
(let ((.def_420 (<= 0.0 .def_419)))
(let ((.def_404 (<= 0.0 .def_403)))
(let ((.def_421 (and .def_404 .def_420)))
(let ((.def_436 (or .def_421 .def_435)))
(let ((.def_387 (* b.delta__AT1 .def_386)))
(let ((.def_388 (* 10.0 .def_387)))
(let ((.def_382 (* b.delta__AT1 .def_381)))
(let ((.def_383 (* 10.0 .def_382)))
(let ((.def_394 (+ .def_383 .def_388)))
(let ((.def_375 (* .def_371 .def_374)))
(let ((.def_376 (* 10.0 .def_375)))
(let ((.def_395 (+ .def_376 .def_394)))
(let ((.def_396 (+ .def_378 .def_395)))
(let ((.def_397 (+ .def_370 .def_396)))
(let ((.def_390 (* (- 10.0) .def_351)))
(let ((.def_398 (+ .def_390 .def_397)))
(let ((.def_399 (+ .def_392 .def_398)))
(let ((.def_400 (<= 0.0 .def_399)))
(let ((.def_352 (<= .def_351 b.y__AT1)))
(let ((.def_401 (and .def_352 .def_400)))
(let ((.def_437 (and .def_401 .def_436)))
(let ((.def_438 (and .def_77 .def_437)))
(let ((.def_45 (not b.counter.0__AT0)))
(let ((.def_361 (or b.counter.1__AT0 .def_45)))
(let ((.def_362 (or b.counter.2__AT0 .def_361)))
(let ((.def_48 (not b.counter.2__AT0)))
(let ((.def_43 (not b.counter.1__AT0)))
(let ((.def_46 (and .def_43 .def_45)))
(let ((.def_360 (or .def_46 .def_48)))
(let ((.def_363 (and .def_360 .def_362)))
(let ((.def_364 (or b.counter.3__AT0 .def_363)))
(let ((.def_357 (or .def_46 b.counter.2__AT0)))
(let ((.def_356 (or .def_43 .def_48)))
(let ((.def_358 (and .def_356 .def_357)))
(let ((.def_51 (not b.counter.3__AT0)))
(let ((.def_359 (or .def_51 .def_358)))
(let ((.def_365 (and .def_359 .def_364)))
(let ((.def_353 (and .def_77 .def_352)))
(let ((.def_349 (or .def_346 .def_348)))
(let ((.def_339 (or .def_251 .def_261)))
(let ((.def_343 (or b.counter.3__AT1 .def_339)))
(let ((.def_340 (or b.counter.2__AT1 .def_339)))
(let ((.def_338 (or .def_256 .def_261)))
(let ((.def_341 (and .def_338 .def_340)))
(let ((.def_342 (or .def_270 .def_341)))
(let ((.def_344 (and .def_342 .def_343)))
(let ((.def_350 (and .def_344 .def_349)))
(let ((.def_354 (and .def_350 .def_353)))
(let ((.def_333 (<= 0.0 b.delta__AT0)))
(let ((.def_64 (not b.EVENT.0__AT0)))
(let ((.def_62 (not b.EVENT.1__AT0)))
(let ((.def_159 (and .def_62 .def_64)))
(let ((.def_161 (not .def_159)))
(let ((.def_334 (or .def_161 .def_333)))
(let ((.def_335 (or b.EVENT.1__AT0 .def_334)))
(let ((.def_204 (= b.bool_atom__AT0 b.bool_atom__AT1)))
(let ((.def_199 (= b.counter.0__AT0 b.counter.0__AT1)))
(let ((.def_196 (= b.counter.1__AT0 b.counter.1__AT1)))
(let ((.def_193 (= b.counter.2__AT0 b.counter.2__AT1)))
(let ((.def_191 (= b.counter.3__AT0 b.counter.3__AT1)))
(let ((.def_194 (and .def_191 .def_193)))
(let ((.def_197 (and .def_194 .def_196)))
(let ((.def_200 (and .def_197 .def_199)))
(let ((.def_329 (and .def_200 .def_204)))
(let ((.def_330 (or .def_161 .def_329)))
(let ((.def_331 (or b.EVENT.1__AT0 .def_330)))
(let ((.def_318 (* (- 10.0) b.y__AT1)))
(let ((.def_85 (* b.delta__AT0 b.delta__AT0)))
(let ((.def_94 (* (- 49.0) .def_85)))
(let ((.def_321 (+ .def_94 .def_318)))
(let ((.def_83 (* b.speed_y__AT0 b.delta__AT0)))
(let ((.def_84 (* 10.0 .def_83)))
(let ((.def_322 (+ .def_84 .def_321)))
(let ((.def_109 (* 10.0 b.y__AT0)))
(let ((.def_323 (+ .def_109 .def_322)))
(let ((.def_324 (= .def_323 0.0 )))
(let ((.def_312 (* (- 5.0) b.speed_y__AT1)))
(let ((.def_131 (* (- 49.0) b.delta__AT0)))
(let ((.def_313 (+ .def_131 .def_312)))
(let ((.def_133 (* 5.0 b.speed_y__AT0)))
(let ((.def_314 (+ .def_133 .def_313)))
(let ((.def_315 (= .def_314 0.0 )))
(let ((.def_304 (* b.speed_x__AT0 b.delta__AT0)))
(let ((.def_308 (+ .def_305 .def_304)))
(let ((.def_309 (+ b.x__AT0 .def_308)))
(let ((.def_310 (= .def_309 0.0 )))
(let ((.def_185 (= b.speed_x__AT0 b.speed_x__AT1)))
(let ((.def_311 (and .def_185 .def_310)))
(let ((.def_316 (and .def_311 .def_315)))
(let ((.def_325 (and .def_316 .def_324)))
(let ((.def_326 (or .def_161 .def_325)))
(let ((.def_182 (= b.y__AT0 b.y__AT1)))
(let ((.def_179 (= b.x__AT0 b.x__AT1)))
(let ((.def_298 (and .def_179 .def_182)))
(let ((.def_299 (and .def_185 .def_298)))
(let ((.def_188 (= b.speed_y__AT0 b.speed_y__AT1)))
(let ((.def_300 (and .def_188 .def_299)))
(let ((.def_295 (= b.delta__AT0 0.0 )))
(let ((.def_296 (and .def_159 .def_295)))
(let ((.def_297 (not .def_296)))
(let ((.def_301 (or .def_297 .def_300)))
(let ((.def_302 (or b.EVENT.1__AT0 .def_301)))
(let ((.def_287 (and .def_185 .def_188)))
(let ((.def_288 (and .def_200 .def_287)))
(let ((.def_289 (or b.bool_atom__AT0 .def_288)))
(let ((.def_262 (or b.counter.0__AT0 .def_261)))
(let ((.def_260 (or .def_45 b.counter.0__AT1)))
(let ((.def_263 (and .def_260 .def_262)))
(let ((.def_264 (and .def_251 .def_263)))
(let ((.def_265 (or b.counter.1__AT0 .def_264)))
(let ((.def_259 (or .def_43 b.counter.1__AT1)))
(let ((.def_266 (and .def_259 .def_265)))
(let ((.def_278 (and .def_256 .def_266)))
(let ((.def_279 (or b.counter.2__AT0 .def_278)))
(let ((.def_273 (and .def_45 .def_251)))
(let ((.def_274 (or b.counter.1__AT0 .def_273)))
(let ((.def_275 (and .def_259 .def_274)))
(let ((.def_276 (and b.counter.2__AT1 .def_275)))
(let ((.def_277 (or .def_48 .def_276)))
(let ((.def_280 (and .def_277 .def_279)))
(let ((.def_281 (and b.counter.3__AT1 .def_280)))
(let ((.def_282 (or b.counter.3__AT0 .def_281)))
(let ((.def_267 (and b.counter.2__AT1 .def_266)))
(let ((.def_268 (or b.counter.2__AT0 .def_267)))
(let ((.def_254 (or b.counter.1__AT0 b.counter.1__AT1)))
(let ((.def_252 (and b.counter.0__AT1 .def_251)))
(let ((.def_253 (or .def_43 .def_252)))
(let ((.def_255 (and .def_253 .def_254)))
(let ((.def_257 (and .def_255 .def_256)))
(let ((.def_258 (or .def_48 .def_257)))
(let ((.def_269 (and .def_258 .def_268)))
(let ((.def_271 (and .def_269 .def_270)))
(let ((.def_272 (or .def_51 .def_271)))
(let ((.def_283 (and .def_272 .def_282)))
(let ((.def_242 (* b.speed_y__AT0 b.speed_y__AT0)))
(let ((.def_241 (* b.speed_x__AT0 b.speed_x__AT0)))
(let ((.def_243 (+ .def_241 .def_242)))
(let ((.def_244 (* .def_240 .def_243)))
(let ((.def_246 (* (- 1.0) .def_244)))
(let ((.def_247 (+ .def_237 .def_246)))
(let ((.def_248 (+ .def_235 .def_247)))
(let ((.def_249 (= .def_248 0.0 )))
(let ((.def_228 (* b.speed_y__AT0 .def_224)))
(let ((.def_211 (* (- 2.0) b.x__AT0)))
(let ((.def_212 (* (- 1.0) .def_211)))
(let ((.def_225 (* .def_212 .def_224)))
(let ((.def_226 (* b.speed_x__AT0 .def_225)))
(let ((.def_231 (+ .def_226 .def_228)))
(let ((.def_232 (+ .def_222 .def_231)))
(let ((.def_233 (+ b.speed_y__AT1 .def_232)))
(let ((.def_234 (= .def_233 0.0 )))
(let ((.def_250 (and .def_234 .def_249)))
(let ((.def_284 (and .def_250 .def_283)))
(let ((.def_219 (not b.bool_atom__AT0)))
(let ((.def_285 (or .def_219 .def_284)))
(let ((.def_213 (* b.speed_x__AT0 .def_212)))
(let ((.def_214 (+ b.speed_y__AT0 .def_213)))
(let ((.def_215 (<= 0.0 .def_214)))
(let ((.def_216 (not .def_215)))
(let ((.def_68 (* (- 1.0) b.x__AT0)))
(let ((.def_69 (* b.x__AT0 .def_68)))
(let ((.def_209 (= b.y__AT0 .def_69)))
(let ((.def_217 (and .def_209 .def_216)))
(let ((.def_218 (= b.bool_atom__AT0 .def_217)))
(let ((.def_286 (and .def_218 .def_285)))
(let ((.def_290 (and .def_286 .def_289)))
(let ((.def_291 (and .def_179 .def_290)))
(let ((.def_292 (and .def_182 .def_291)))
(let ((.def_293 (or .def_159 .def_292)))
(let ((.def_294 (or b.EVENT.1__AT0 .def_293)))
(let ((.def_303 (and .def_294 .def_302)))
(let ((.def_327 (and .def_303 .def_326)))
(let ((.def_166 (= b.time__AT0 b.time__AT1)))
(let ((.def_180 (and .def_166 .def_179)))
(let ((.def_183 (and .def_180 .def_182)))
(let ((.def_186 (and .def_183 .def_185)))
(let ((.def_189 (and .def_186 .def_188)))
(let ((.def_201 (and .def_189 .def_200)))
(let ((.def_205 (and .def_201 .def_204)))
(let ((.def_206 (or .def_62 .def_205)))
(let ((.def_169 (* (- 1.0) b.time__AT1)))
(let ((.def_172 (+ b.delta__AT0 .def_169)))
(let ((.def_173 (+ b.time__AT0 .def_172)))
(let ((.def_174 (= .def_173 0.0 )))
(let ((.def_175 (or .def_161 .def_174)))
(let ((.def_176 (or b.EVENT.1__AT0 .def_175)))
(let ((.def_167 (or .def_159 .def_166)))
(let ((.def_168 (or b.EVENT.1__AT0 .def_167)))
(let ((.def_177 (and .def_168 .def_176)))
(let ((.def_207 (and .def_177 .def_206)))
(let ((.def_163 (= .def_161 b.event_is_timed__AT1)))
(let ((.def_160 (= b.event_is_timed__AT0 .def_159)))
(let ((.def_164 (and .def_160 .def_163)))
(let ((.def_208 (and .def_164 .def_207)))
(let ((.def_328 (and .def_208 .def_327)))
(let ((.def_332 (and .def_328 .def_331)))
(let ((.def_336 (and .def_332 .def_335)))
(let ((.def_337 (and .def_62 .def_336)))
(let ((.def_355 (and .def_337 .def_354)))
(let ((.def_366 (and .def_355 .def_365)))
(let ((.def_86 (* (- 1.0) b.speed_x__AT0)))
(let ((.def_87 (* b.speed_x__AT0 .def_86)))
(let ((.def_88 (* (- 1.0) .def_87)))
(let ((.def_122 (* 2.0 .def_88)))
(let ((.def_142 (* (- 1.0) .def_122)))
(let ((.def_143 (* b.delta__AT0 .def_142)))
(let ((.def_144 (* (- 5.0) .def_143)))
(let ((.def_101 (* b.speed_x__AT0 .def_68)))
(let ((.def_129 (* (- 5.0) .def_101)))
(let ((.def_149 (+ .def_129 .def_144)))
(let ((.def_96 (* b.x__AT0 .def_86)))
(let ((.def_127 (* (- 5.0) .def_96)))
(let ((.def_150 (+ .def_127 .def_149)))
(let ((.def_151 (+ .def_131 .def_150)))
(let ((.def_152 (+ .def_133 .def_151)))
(let ((.def_153 (<= .def_152 0.0 )))
(let ((.def_102 (* (- 1.0) .def_101)))
(let ((.def_97 (* (- 1.0) .def_96)))
(let ((.def_119 (+ .def_97 .def_102)))
(let ((.def_120 (+ b.speed_y__AT0 .def_119)))
(let ((.def_141 (<= .def_120 0.0 )))
(let ((.def_154 (and .def_141 .def_153)))
(let ((.def_123 (* b.delta__AT0 .def_122)))
(let ((.def_125 (* 5.0 .def_123)))
(let ((.def_135 (+ .def_129 .def_125)))
(let ((.def_136 (+ .def_127 .def_135)))
(let ((.def_137 (+ .def_131 .def_136)))
(let ((.def_138 (+ .def_133 .def_137)))
(let ((.def_139 (<= 0.0 .def_138)))
(let ((.def_121 (<= 0.0 .def_120)))
(let ((.def_140 (and .def_121 .def_139)))
(let ((.def_155 (or .def_140 .def_154)))
(let ((.def_103 (* b.delta__AT0 .def_102)))
(let ((.def_104 (* 10.0 .def_103)))
(let ((.def_98 (* b.delta__AT0 .def_97)))
(let ((.def_99 (* 10.0 .def_98)))
(let ((.def_111 (+ .def_99 .def_104)))
(let ((.def_89 (* .def_85 .def_88)))
(let ((.def_90 (* 10.0 .def_89)))
(let ((.def_112 (+ .def_90 .def_111)))
(let ((.def_113 (+ .def_94 .def_112)))
(let ((.def_114 (+ .def_84 .def_113)))
(let ((.def_107 (* (- 10.0) .def_69)))
(let ((.def_115 (+ .def_107 .def_114)))
(let ((.def_116 (+ .def_109 .def_115)))
(let ((.def_117 (<= 0.0 .def_116)))
(let ((.def_70 (<= .def_69 b.y__AT0)))
(let ((.def_118 (and .def_70 .def_117)))
(let ((.def_156 (and .def_118 .def_155)))
(let ((.def_157 (and .def_77 .def_156)))
(let ((.def_78 (and .def_70 .def_77)))
(let ((.def_65 (or .def_62 .def_64)))
(let ((.def_55 (or .def_43 .def_45)))
(let ((.def_59 (or b.counter.3__AT0 .def_55)))
(let ((.def_56 (or b.counter.2__AT0 .def_55)))
(let ((.def_54 (or .def_45 .def_48)))
(let ((.def_57 (and .def_54 .def_56)))
(let ((.def_58 (or .def_51 .def_57)))
(let ((.def_60 (and .def_58 .def_59)))
(let ((.def_66 (and .def_60 .def_65)))
(let ((.def_79 (and .def_66 .def_78)))
(let ((.def_49 (and .def_46 .def_48)))
(let ((.def_52 (and .def_49 .def_51)))
(let ((.def_40 (= b.speed_y__AT0 1.0 )))
(let ((.def_37 (= b.speed_x__AT0 1.0 )))
(let ((.def_33 (= b.y__AT0 10.0 )))
(let ((.def_29 (= b.x__AT0 0.0 )))
(let ((.def_25 (= b.time__AT0 0.0 )))
(let ((.def_27 (and .def_25 b.event_is_timed__AT0)))
(let ((.def_30 (and .def_27 .def_29)))
(let ((.def_34 (and .def_30 .def_33)))
(let ((.def_38 (and .def_34 .def_37)))
(let ((.def_41 (and .def_38 .def_40)))
(let ((.def_53 (and .def_41 .def_52)))
(let ((.def_80 (and .def_53 .def_79)))
(let ((.def_17 (or b.counter.1__AT2 .def_9)))
(let ((.def_18 (or b.counter.2__AT2 .def_17)))
(let ((.def_10 (and .def_6 .def_9)))
(let ((.def_16 (or .def_4 .def_10)))
(let ((.def_19 (and .def_16 .def_18)))
(let ((.def_20 (or b.counter.3__AT2 .def_19)))
(let ((.def_11 (or b.counter.2__AT2 .def_10)))
(let ((.def_7 (or .def_4 .def_6)))
(let ((.def_12 (and .def_7 .def_11)))
(let ((.def_15 (or .def_12 .def_14)))
(let ((.def_21 (and .def_15 .def_20)))
(let ((.def_22 (not .def_21)))
(let ((.def_81 (and .def_22 .def_80)))
(let ((.def_158 (and .def_81 .def_157)))
(let ((.def_367 (and .def_158 .def_366)))
(let ((.def_439 (and .def_367 .def_438)))
(let ((.def_631 (and .def_439 .def_630)))
(let ((.def_703 (and .def_631 .def_702)))
.def_703))))))))))))))))))))))))))))))))))))))))))))))))))))))))))))))))))))))))))))))))))))))))))))))))))))))))))))))))))))))))))))))))))))))))))))))))))))))))))))))))))))))))))))))))))))))))))))))))))))))))))))))))))))))))))))))))))))))))))))))))))))))))))))))))))))))))))))))))))))))))))))))))))))))))))))))))))))))))))))))))))))))))))))))))))))))))))))))))))))))))))))))))))))))))))))))))))))))))))))))))))))))))))))))))))))))))))))))))))))))))))))))))))))))))))))))))))))))))))))))))))))))))))))))))))))))))))))))))))))))))))))))))))))))))))))))))))))))))))))))))))))))))))))))))
(check-sat)
(exit)
